(set-logic QF_S)
(declare-fun var0 () String)
(declare-fun var1 () Int)
(declare-fun var2 () Int)
(declare-fun var3 () String)
(declare-fun var4 () String)
(declare-fun var5 () String)
(declare-fun var6 () Int)
(declare-fun var7 () Int)
(assert (str.in.re (str.replace (str.substr var0 var1 var2) (str.replace var3 var4 var5) (str.replace var0 var3 var3)) (re.* re.allchar)))
(assert (<= (str.len var4) (str.to.int var5)))
(assert (< (str.to.int var5) (str.to.int (str.at var4 var6))))
(assert (<= (str.to.int var4) (str.indexof var0 var5 var7)))
(check-sat)